File: D:\ML4VRP2024\Instances\CVRP\json\X-n157-k13.json exists.
Route #1: 13 63 64 141 43 88 47 126 1 117 9 108 
Route #2: 129 91 83 57 5 153 76 136 112 89 81 2 
Route #3: 143 32 42 3 106 73 135 21 121 140 85 144 
Route #4: 61 17 56 67 4 35 95 105 152 37 116 154 
Route #5: 41 110 54 6 115 55 131 133 50 23 31 98 
Route #6: 24 156 70 92 139 125 78 146 40 80 7 137 
Route #7: 101 71 149 8 44 124 130 111 132 46 19 27 
Route #8: 151 113 84 74 30 22 155 134 10 39 58 29 
Route #9: 100 51 90 82 11 77 45 119 12 60 109 114 
Route #10: 49 14 72 48 33 34 18 138 25 79 52 107 
Route #11: 15 147 118 75 20 16 36 68 120 26 128 142 
Route #12: 148 59 150 96 102 86 94 66 28 104 127 145 
Route #13: 38 122 69 99 93 103 65 87 97 62 53 123 
